
Gurobi 9.5.2 (mac64[arm]) logging started Sat Nov 12 14:21:03 2022

Set parameter LogFile to value "./ccga_results/2022-11-12 14-20-43-143/FMP_[2022-11-12 14:21:03.243]_gurobi_log.txt"

Gurobi 9.5.2 (mac64[arm]) logging started Sat Nov 12 14:21:03 2022

Set parameter LogFile to value "./ccga_results/2022-11-12 14-20-43-143/FMP_[2022-11-12 14:21:03.243]_gurobi_log.txt"
Set parameter TimeLimit to value 180
Gurobi Optimizer version 9.5.2 build v9.5.2rc0 (mac64[arm])
Thread count: 8 physical cores, 8 logical processors, using up to 8 threads
Optimize a model with 3268 rows, 1323 columns and 11126 nonzeros
Model fingerprint: 0x564c4f64
Variable types: 1275 continuous, 48 integer (48 binary)
Coefficient statistics:
  Matrix range     [3e-02, 1e+08]
  Objective range  [1e+00, 1e+00]
  Bounds range     [1e+00, 1e+00]
  RHS range        [1e+00, 1e+08]
Presolve removed 987 rows and 334 columns
Presolve time: 0.01s
Presolved: 2281 rows, 989 columns, 7787 nonzeros
Variable types: 965 continuous, 24 integer (24 binary)
Found heuristic solution: objective -0.0000000

Root relaxation: objective 6.701133e+02, 2653 iterations, 0.06 seconds (0.11 work units)

    Nodes    |    Current Node    |     Objective Bounds      |     Work
 Expl Unexpl |  Obj  Depth IntInf | Incumbent    BestBd   Gap | It/Node Time

     0     0  670.11333    0   24   -0.00000  670.11333      -     -    0s
     0     0  427.10302    0   24   -0.00000  427.10302      -     -    0s
     0     0  416.62111    0   24   -0.00000  416.62111      -     -    0s
     0     0  402.96957    0   24   -0.00000  402.96957      -     -    0s
     0     0  402.96957    0   24   -0.00000  402.96957      -     -    0s
     0     0  312.73297    0   22   -0.00000  312.73297      -     -    0s
     0     0  291.15535    0   22   -0.00000  291.15535      -     -    0s
     0     0  261.20589    0   22   -0.00000  261.20589      -     -    0s
     0     0  250.48036    0   23   -0.00000  250.48036      -     -    0s
     0     0  248.53278    0   23   -0.00000  248.53278      -     -    0s
     0     0  248.38153    0   23   -0.00000  248.38153      -     -    0s
     0     0  248.12935    0   20   -0.00000  248.12935      -     -    0s
     0     0  247.93481    0   23   -0.00000  247.93481      -     -    0s
H    0     0                       0.0000005  247.93481      -     -    0s
     0     0  175.74273    0   23    0.00000  175.74273      -     -    0s
H    0     0                      11.7255186  175.74273  1399%     -    0s
     0     0  149.33272    0   22   11.72552  149.33272  1174%     -    0s
     0     0  143.95449    0   22   11.72552  143.95449  1128%     -    0s
     0     0  143.19449    0   22   11.72552  143.19449  1121%     -    0s
     0     0  142.73414    0   22   11.72552  142.73414  1117%     -    0s
     0     0  142.73414    0   22   11.72552  142.73414  1117%     -    0s
     0     0  119.65656    0   21   11.72552  119.65656   920%     -    0s
     0     0  116.22231    0   24   11.72552  116.22231   891%     -    0s
     0     0  112.09667    0   24   11.72552  112.09667   856%     -    0s
     0     0  111.37355    0   24   11.72552  111.37355   850%     -    0s
     0     0  111.13708    0   24   11.72552  111.13708   848%     -    0s
     0     0  111.10330    0   24   11.72552  111.10330   848%     -    0s
     0     0   92.71434    0   24   11.72552   92.71434   691%     -    0s
     0     2   92.71434    0   24   11.72552   92.71434   691%     -    0s
H    3     8                      24.3930238   76.68538   214%   113    0s

Cutting planes:
  Gomory: 5
  MIR: 11
  Flow cover: 7
  RLT: 104

Explored 74 nodes (10279 simplex iterations) in 0.92 seconds (1.46 work units)
Thread count was 8 (of 8 available processors)

Solution count 4: 24.393 11.7255 4.7101e-07 -0 

Optimal solution found (tolerance 1.00e-03)
Best objective 2.439302377540e+01, best bound 2.439302377540e+01, gap 0.0000%

User-callback calls 1107, time in user-callback 0.00 sec
